NAME : rnd92_20.tsp
TYPE : TSP
DIMENSION : 20
EDGE_WEIGHT_TYPE : EUC_2D
NODE_COORD_SECTION
0 706 892
1 776 236
2 368 778
3 810 197
4 935 502
5 368 443
6 833 56
7 501 267
8 636 557
9 670 420
10 25 547
11 54 720
12 193 395
13 204 597
14 995 260
15 2 439
16 752 957
17 613 382
18 839 880
19 517 814
